music.cnf
p cnf 140 258
73 0
84 0
101 0
106 0
-1 -25 0
-1 -27 0
-3 -27 0
-11 -15 0
-13 -15 0
-13 -17 0
-2 -26 0
-2 -28 0
-4 -28 0
-12 -16 0
-14 -16 0
-14 -18 0
-15 -39 0
-15 -41 0
-17 -41 0
-25 -29 0
-27 -29 0
-27 -31 0
-16 -40 0
-16 -42 0
-18 -42 0
-26 -30 0
-28 -30 0
-28 -32 0
-29 -53 0
-29 -55 0
-31 -55 0
-39 -43 0
-41 -43 0
-41 -45 0
-30 -54 0
-30 -56 0
-32 -56 0
-40 -44 0
-42 -44 0
-42 -46 0
-43 -67 0
-43 -69 0
-45 -69 0
-53 -57 0
-55 -57 0
-55 -59 0
-44 -68 0
-44 -70 0
-46 -70 0
-54 -58 0
-56 -58 0
-56 -60 0
-57 -81 0
-57 -83 0
-59 -83 0
-67 -71 0
-69 -71 0
-69 -73 0
-58 -82 0
-58 -84 0
-60 -84 0
-68 -72 0
-70 -72 0
-70 -74 0
-71 -95 0
-71 -97 0
-73 -97 0
-81 -85 0
-83 -85 0
-83 -87 0
-72 -96 0
-72 -98 0
-74 -98 0
-82 -86 0
-84 -86 0
-84 -88 0
-85 -109 0
-85 -111 0
-87 -111 0
-95 -99 0
-97 -99 0
-97 -101 0
-86 -110 0
-86 -112 0
-88 -112 0
-96 -100 0
-98 -100 0
-98 -102 0
-99 -123 0
-99 -125 0
-101 -125 0
-109 -113 0
-111 -113 0
-111 -115 0
-100 -124 0
-100 -126 0
-102 -126 0
-110 -114 0
-112 -114 0
-112 -116 0
-113 -137 0
-113 -139 0
-115 -139 0
-123 -127 0
-125 -127 0
-125 -129 0
-114 -138 0
-114 -140 0
-116 -140 0
-124 -128 0
-126 -128 0
-126 -130 0
1 5 9 0
2 6 10 0
21 25 15 0
22 26 16 0
37 41 31 0
38 42 32 0
43 47 51 0
44 48 52 0
57 61 65 0
58 62 66 0
77 81 71 0
78 82 72 0
93 97 87 0
94 98 88 0
99 103 107 0
100 104 108 0
113 117 121 0
114 118 122 0
133 137 127 0
134 138 128 0
-1 -15 0
-3 -17 0
-5 -19 0
-7 -21 0
-9 -23 0
-11 -25 0
-13 -27 0
-2 -16 0
-4 -18 0
-6 -20 0
-8 -22 0
-10 -24 0
-12 -26 0
-14 -28 0
-15 -29 0
-17 -31 0
-19 -33 0
-21 -35 0
-23 -37 0
-25 -39 0
-27 -41 0
-16 -30 0
-18 -32 0
-20 -34 0
-22 -36 0
-24 -38 0
-26 -40 0
-28 -42 0
-29 -43 0
-31 -45 0
-33 -47 0
-35 -49 0
-37 -51 0
-39 -53 0
-41 -55 0
-30 -44 0
-32 -46 0
-34 -48 0
-36 -50 0
-38 -52 0
-40 -54 0
-42 -56 0
-43 -57 0
-45 -59 0
-47 -61 0
-49 -63 0
-51 -65 0
-53 -67 0
-55 -69 0
-44 -58 0
-46 -60 0
-48 -62 0
-50 -64 0
-52 -66 0
-54 -68 0
-56 -70 0
-57 -71 0
-59 -73 0
-61 -75 0
-63 -77 0
-65 -79 0
-67 -81 0
-69 -83 0
-58 -72 0
-60 -74 0
-62 -76 0
-64 -78 0
-66 -80 0
-68 -82 0
-70 -84 0
-71 -85 0
-73 -87 0
-75 -89 0
-77 -91 0
-79 -93 0
-81 -95 0
-83 -97 0
-72 -86 0
-74 -88 0
-76 -90 0
-78 -92 0
-80 -94 0
-82 -96 0
-84 -98 0
-85 -99 0
-87 -101 0
-89 -103 0
-91 -105 0
-93 -107 0
-95 -109 0
-97 -111 0
-86 -100 0
-88 -102 0
-90 -104 0
-92 -106 0
-94 -108 0
-96 -110 0
-98 -112 0
-99 -113 0
-101 -115 0
-103 -117 0
-105 -119 0
-107 -121 0
-109 -123 0
-111 -125 0
-100 -114 0
-102 -116 0
-104 -118 0
-106 -120 0
-108 -122 0
-110 -124 0
-112 -126 0
-113 -127 0
-115 -129 0
-117 -131 0
-119 -133 0
-121 -135 0
-123 -137 0
-125 -139 0
-114 -128 0
-116 -130 0
-118 -132 0
-120 -134 0
-122 -136 0
-124 -138 0
-126 -140 0
